sat
(= row_4 0b01010011)
(= col_1 0b11010100)
(= row_2 0b00101011)
(= row_7 0b01001011)
(= row_3 0b10101100)
(= col_2 0b01001011)
(= row_5 0b10101001)
(= col_3 0b10101100)
(= row_6 0b01010110)
(= row_1 0b11010100)
(= col_0 0b10110100)
(= row_0 0b10110100)
(= col_7 0b00101011)
(= col_4 0b01010011)
(= col_5 0b00101101)
(= col_6 0b11010010)
